# 33203
param k := 6;
param n := 50;
param s := 1;
set E :=  (0,9) (0,40) (0,47) (1,6) (1,37) (2,20) (2,32) (2,46) (3,8) (3,23) (4,20) (4,30) (5,12) (5,16) (5,26) (5,37) (5,41) (6,26) (6,40) (7,17) (7,23) (7,36) (8,9) (8,12) (8,29) (8,32) (8,48) (9,49) (10,22) (10,35) (10,47) (11,17) (11,34) (12,28) (12,42) (13,25) (13,42) (13,45) (14,24) (14,27) (14,44) (15,40) (16,19) (17,25) (17,39) (17,41) (18,27) (18,38) (19,32) (20,26) (21,29) (21,37) (22,33) (23,45) (24,43) (24,46) (26,32) (29,31) (30,37) (38,47) (38,48) (38,49) (43,46);